unsat
(:binary-propagations  51
 :conflicts            1
 :final-checks         1
 :max-generation       1
 :max-memory           28.28
 :memory               22.43
 :mk-bool-var          2574
 :mk-clause            712
 :mk-clause-binary     3308
 :num-allocs           81005759
 :num-checks           1
 :propagations         51
 :quant-instantiations 559
 :restarts             1
 :rlimit-count         660451
 :time                 0.10)
